p wcnf 120 1200
5 -114 115 0
7 -113 -114 0
4 -111 -116 0
3 -109 -114 0
6 -108 -113 0
9 -107 -112 0
3 -106 -120 0
4 -105 -108 0
6 -104 -118 0
7 -103 -109 0
6 -101 -119 0
4 -101 119 0
6 -100 -119 0
3 -100 -116 0
8 -100 -111 0
6 -100 -106 0
9 -99 -112 0
3 -98 -112 0
8 -98 -102 0
7 -98 101 0
3 -98 110 0
3 -98 120 0
7 -97 -110 0
4 -97 -102 0
10 -97 101 0
10 -97 103 0
3 -95 -119 0
8 -95 -114 0
3 -95 -96 0
5 -95 99 0
2 -95 116 0
7 -94 -116 0
3 -94 -110 0
5 -94 -99 0
8 -94 95 0
8 -94 100 0
3 -93 -108 0
1 -93 -102 0
2 -93 109 0
8 -92 -119 0
7 -92 94 0
7 -91 94 0
2 -90 -97 0
4 -90 -91 0
9 -90 114 0
9 -89 -116 0
9 -89 -114 0
8 -89 -105 0
2 -89 97 0
7 -89 117 0
5 -88 107 0
4 -87 106 0
9 -87 111 0
2 -86 92 0
8 -85 -112 0
9 -85 -106 0
2 -85 90 0
10 -84 107 0
7 -83 -89 0
4 -83 108 0
5 -82 -120 0
8 -82 -112 0
9 -81 -102 0
6 -81 84 0
3 -81 101 0
7 -81 102 0
4 -80 -120 0
5 -80 -101 0
8 -80 96 0
5 -79 -109 0
3 -79 109 0
5 -78 -118 0
2 -78 92 0
5 -78 94 0
7 -78 119 0
1 -78 120 0
4 -77 -110 0
6 -77 -107 0
8 -77 -82 0
5 -77 99 0
4 -77 103 0
3 -77 120 0
8 -76 -114 0
2 -76 -110 0
4 -76 -80 0
5 -76 88 0
1 -76 105 0
5 -76 107 0
5 -76 112 0
7 -75 -100 0
8 -74 -106 0
9 -74 -80 0
5 -74 -79 0
7 -73 -117 0
5 -73 -105 0
7 -73 89 0
4 -73 98 0
8 -72 -113 0
2 -72 -104 0
2 -72 -89 0
4 -72 -74 0
4 -72 89 0
6 -72 95 0
5 -71 -107 0
8 -71 -103 0
3 -71 -93 0
5 -71 87 0
2 -71 95 0
8 -71 98 0
3 -71 117 0
5 -70 -104 0
2 -70 -78 0
5 -70 100 0
3 -70 102 0
3 -69 -71 0
9 -69 91 0
8 -68 -75 0
4 -68 -71 0
4 -68 107 0
3 -67 91 0
10 -67 119 0
2 -65 -93 0
1 -65 -77 0
5 -65 -66 0
7 -65 69 0
5 -65 96 0
2 -65 117 0
2 -64 -71 0
3 -64 94 0
3 -63 -110 0
3 -63 -64 0
6 -63 64 0
6 -63 86 0
7 -63 116 0
10 -62 -67 0
4 -62 76 0
9 -62 83 0
5 -62 93 0
5 -62 118 0
8 -61 -68 0
7 -61 83 0
9 -61 103 0
9 -61 119 0
2 -61 120 0
2 -60 -73 0
2 -60 -70 0
1 -60 -61 0
8 -60 94 0
5 -60 99 0
4 -59 -113 0
10 -59 -108 0
5 -59 -98 0
4 -59 -85 0
1 -59 -76 0
9 -59 -71 0
2 -59 82 0
5 -59 105 0
1 -58 -118 0
3 -58 -117 0
7 -58 69 0
3 -58 99 0
4 -58 100 0
3 -57 -112 0
9 -57 -70 0
2 -57 94 0
3 -57 111 0
3 -56 -107 0
1 -56 -62 0
7 -56 58 0
6 -55 -107 0
8 -55 -101 0
4 -55 -80 0
5 -55 66 0
7 -55 70 0
5 -55 78 0
6 -54 -64 0
8 -54 -56 0
5 -54 63 0
5 -54 65 0
3 -54 73 0
8 -54 108 0
4 -53 -107 0
7 -53 -71 0
2 -53 75 0
4 -53 98 0
6 -53 118 0
3 -52 -93 0
9 -52 63 0
6 -52 72 0
5 -52 79 0
6 -52 96 0
8 -52 106 0
8 -51 -95 0
8 -51 -88 0
7 -51 -86 0
9 -51 78 0
10 -51 86 0
9 -51 90 0
9 -51 95 0
7 -51 99 0
5 -50 -102 0
7 -50 -82 0
9 -50 64 0
10 -50 86 0
4 -50 115 0
4 -49 -92 0
6 -49 -69 0
2 -49 65 0
9 -49 106 0
9 -48 -104 0
4 -48 -60 0
7 -48 -56 0
4 -48 -54 0
9 -48 65 0
8 -48 120 0
7 -47 -81 0
5 -47 -72 0
2 -47 -54 0
6 -47 69 0
1 -47 100 0
6 -47 115 0
2 -46 -64 0
9 -46 -62 0
4 -46 60 0
9 -46 73 0
6 -46 114 0
3 -45 -73 0
9 -45 -67 0
5 -45 55 0
2 -45 60 0
6 -45 69 0
9 -45 91 0
8 -45 114 0
5 -44 -83 0
9 -44 -82 0
2 -44 48 0
9 -44 81 0
5 -44 82 0
2 -43 -94 0
7 -43 -90 0
5 -43 -89 0
5 -43 -67 0
4 -43 -57 0
7 -43 -44 0
4 -43 51 0
2 -43 65 0
5 -43 66 0
8 -42 -115 0
3 -42 -77 0
10 -42 -71 0
9 -42 -69 0
7 -42 -44 0
2 -42 51 0
7 -42 54 0
1 -42 77 0
1 -41 -105 0
3 -41 -103 0
3 -41 -96 0
10 -41 -80 0
7 -41 45 0
4 -41 55 0
6 -41 69 0
7 -41 73 0
2 -40 -117 0
10 -40 -89 0
6 -40 -44 0
3 -40 58 0
8 -40 82 0
10 -40 102 0
4 -40 105 0
5 -40 107 0
4 -40 115 0
8 -39 -84 0
8 -39 -74 0
2 -39 -66 0
2 -38 -117 0
9 -38 -110 0
5 -38 -104 0
9 -38 -96 0
2 -38 -87 0
5 -38 -59 0
8 -38 -46 0
8 -38 58 0
6 -38 86 0
6 -38 107 0
8 -37 -101 0
6 -37 -75 0
8 -37 -68 0
2 -37 -64 0
6 -36 -104 0
5 -36 -103 0
5 -36 -91 0
2 -36 -45 0
2 -36 -37 0
6 -36 59 0
1 -36 65 0
7 -35 -106 0
7 -35 -94 0
8 -35 -61 0
6 -35 -60 0
1 -34 -119 0
4 -34 -78 0
10 -34 68 0
8 -34 100 0
2 -34 105 0
2 -34 108 0
9 -33 -70 0
1 -33 39 0
6 -33 94 0
8 -33 97 0
2 -33 107 0
1 -32 -99 0
6 -32 100 0
9 -32 110 0
6 -32 114 0
2 -31 -77 0
8 -31 -52 0
3 -31 -40 0
8 -31 33 0
8 -31 59 0
8 -31 80 0
4 -31 105 0
3 -31 107 0
8 -30 -104 0
4 -30 -102 0
8 -30 70 0
9 -29 -116 0
1 -29 -91 0
5 -29 -44 0
7 -29 -33 0
7 -29 72 0
5 -29 93 0
9 -28 -68 0
6 -28 65 0
3 -28 72 0
1 -28 93 0
7 -28 101 0
1 -27 -110 0
2 -27 -90 0
3 -27 -69 0
8 -27 -36 0
3 -27 49 0
3 -27 84 0
4 -27 87 0
2 -26 -100 0
9 -26 -95 0
5 -26 -93 0
9 -26 -71 0
2 -26 -61 0
4 -26 -41 0
7 -26 72 0
9 -26 79 0
6 -26 85 0
10 -26 111 0
7 -25 -118 0
10 -25 -111 0
7 -25 -101 0
6 -25 -80 0
10 -25 -42 0
2 -25 68 0
3 -24 -116 0
6 -24 -67 0
7 -24 -51 0
2 -24 -31 0
3 -24 30 0
8 -24 71 0
2 -23 -117 0
9 -23 -113 0
9 -23 -107 0
3 -23 -105 0
2 -23 -93 0
7 -23 -78 0
5 -23 28 0
4 -23 49 0
2 -23 94 0
6 -23 100 0
3 -23 113 0
6 -22 -116 0
5 -22 -95 0
4 -22 -88 0
8 -22 -87 0
2 -22 -75 0
3 -22 55 0
4 -22 65 0
2 -22 76 0
9 -21 -120 0
4 -21 -115 0
8 -21 -97 0
4 -21 -93 0
4 -21 31 0
10 -21 68 0
6 -21 75 0
9 -21 102 0
6 -21 117 0
7 -20 -68 0
2 -20 -67 0
5 -20 -57 0
8 -20 -51 0
10 -20 -40 0
3 -20 24 0
1 -20 25 0
2 -20 37 0
10 -20 68 0
5 -20 74 0
5 -20 95 0
1 -20 98 0
9 -20 112 0
7 -19 -109 0
6 -19 -85 0
4 -19 -58 0
1 -19 -53 0
4 -19 -45 0
5 -19 -24 0
3 -19 -23 0
8 -19 21 0
6 -19 45 0
2 -19 53 0
2 -19 71 0
4 -19 75 0
5 -18 -119 0
5 -18 -104 0
4 -18 -87 0
10 -18 -85 0
4 -18 -83 0
9 -18 -75 0
7 -18 -46 0
5 -18 19 0
4 -18 24 0
5 -18 32 0
4 -18 44 0
6 -17 -81 0
5 -17 -38 0
5 -17 -21 0
6 -17 26 0
8 -17 40 0
9 -17 47 0
6 -17 66 0
8 -17 80 0
6 -16 -101 0
3 -16 -28 0
2 -16 -20 0
6 -16 26 0
6 -16 30 0
6 -16 33 0
8 -16 44 0
4 -16 51 0
2 -16 67 0
9 -16 97 0
5 -16 99 0
5 -16 104 0
4 -15 -120 0
9 -15 -63 0
7 -15 -50 0
3 -15 -43 0
2 -15 -37 0
7 -15 -36 0
9 -15 -18 0
6 -15 20 0
9 -15 73 0
4 -15 90 0
9 -15 94 0
6 -15 104 0
8 -15 113 0
4 -14 -74 0
2 -14 -60 0
6 -14 39 0
3 -14 41 0
7 -14 44 0
4 -14 81 0
8 -14 87 0
9 -14 92 0
4 -14 119 0
5 -13 -109 0
5 -13 -107 0
9 -13 -103 0
3 -13 -16 0
7 -13 16 0
10 -13 37 0
2 -13 43 0
2 -13 75 0
4 -13 90 0
4 -13 97 0
10 -12 -120 0
2 -12 -119 0
7 -12 -90 0
2 -12 -89 0
7 -12 22 0
6 -12 50 0
8 -12 95 0
7 -11 -100 0
9 -11 -88 0
7 -11 -79 0
2 -11 -57 0
6 -11 -38 0
1 -11 -22 0
3 -11 -17 0
2 -11 12 0
3 -11 19 0
9 -11 91 0
5 -11 119 0
2 -10 -98 0
7 -10 -84 0
9 -10 -83 0
5 -10 -52 0
2 -10 -28 0
8 -10 -23 0
7 -10 12 0
8 -10 27 0
7 -10 84 0
8 -10 94 0
10 -9 -114 0
1 -9 -103 0
2 -9 -101 0
9 -9 -88 0
2 -9 -72 0
8 -9 -56 0
2 -9 -51 0
8 -9 -49 0
4 -9 -21 0
8 -9 31 0
5 -9 33 0
3 -9 55 0
5 -9 59 0
6 -9 61 0
8 -9 75 0
6 -9 88 0
7 -8 -99 0
10 -8 -88 0
8 -8 -87 0
6 -8 -77 0
5 -8 -42 0
9 -8 -39 0
3 -8 17 0
3 -8 66 0
4 -8 86 0
4 -8 94 0
10 -8 118 0
10 -7 -108 0
2 -7 -89 0
7 -7 30 0
8 -7 33 0
2 -7 43 0
7 -7 44 0
9 -7 46 0
10 -7 84 0
8 -6 -81 0
7 -6 -80 0
2 -6 -60 0
6 -6 -36 0
10 -6 -32 0
9 -6 26 0
10 -6 47 0
2 -6 76 0
4 -6 77 0
5 -6 101 0
10 -6 118 0
9 -5 -120 0
3 -5 -94 0
9 -5 -79 0
7 -5 -21 0
8 -5 20 0
4 -5 35 0
6 -5 82 0
10 -5 103 0
7 -5 106 0
8 -4 -107 0
3 -4 -100 0
7 -4 -85 0
8 -4 -80 0
4 -4 -66 0
4 -4 8 0
6 -4 23 0
5 -4 27 0
10 -4 42 0
5 -4 82 0
5 -4 97 0
8 -3 -114 0
1 -3 -101 0
6 -3 75 0
4 -3 103 0
1 -2 -115 0
5 -2 -106 0
4 -2 -87 0
3 -2 -76 0
8 -2 -31 0
8 -2 -18 0
2 -2 36 0
7 -2 49 0
9 -2 62 0
2 -2 66 0
3 -2 94 0
7 -2 118 0
5 -1 -98 0
8 -1 -79 0
7 -1 -49 0
1 -1 -34 0
7 -1 80 0
9 -1 91 0
7 -1 99 0
5 -1 114 0
3 1 -85 0
10 1 -78 0
10 1 -60 0
7 1 -16 0
10 1 -14 0
5 1 6 0
2 1 17 0
8 1 46 0
5 1 48 0
7 1 67 0
2 1 92 0
5 2 -72 0
1 2 -47 0
4 2 -27 0
7 2 -24 0
8 2 -21 0
2 2 -4 0
8 2 19 0
5 2 50 0
1 2 88 0
8 2 112 0
7 3 -101 0
7 3 -58 0
3 3 -56 0
5 3 4 0
4 3 50 0
4 3 80 0
2 3 114 0
3 4 -107 0
10 4 -52 0
6 4 -43 0
5 4 -40 0
10 4 -8 0
6 4 7 0
3 4 26 0
9 4 43 0
9 4 49 0
4 4 53 0
7 4 103 0
4 5 -96 0
10 5 -65 0
8 5 -45 0
8 5 -11 0
10 5 32 0
2 5 61 0
5 5 72 0
8 5 76 0
3 5 84 0
3 5 94 0
3 6 -115 0
3 6 -49 0
1 6 -46 0
9 6 -41 0
9 6 -32 0
3 6 -23 0
4 6 69 0
3 6 72 0
6 6 87 0
4 6 117 0
5 6 118 0
6 7 -115 0
9 7 -105 0
9 7 -83 0
5 7 -63 0
5 7 -49 0
2 7 -47 0
5 7 -21 0
4 7 16 0
5 7 18 0
2 7 65 0
7 7 91 0
5 7 112 0
8 8 -112 0
6 8 -100 0
5 8 -82 0
9 8 -47 0
10 8 -37 0
3 8 -36 0
2 8 16 0
2 8 19 0
4 8 65 0
4 8 69 0
3 8 96 0
3 9 -38 0
3 9 -19 0
5 9 -12 0
5 9 61 0
6 9 73 0
10 9 98 0
9 10 -116 0
10 10 -89 0
6 10 -73 0
8 10 -52 0
9 10 -50 0
1 10 -18 0
3 10 35 0
1 10 43 0
5 10 86 0
5 10 100 0
5 10 101 0
5 11 -93 0
3 11 -78 0
9 11 79 0
4 11 83 0
7 12 -111 0
4 12 -73 0
3 12 -23 0
7 12 -16 0
5 12 17 0
4 12 31 0
8 12 49 0
8 12 96 0
7 12 99 0
10 12 105 0
10 13 -91 0
9 13 -89 0
5 13 -84 0
5 13 -81 0
5 13 -55 0
5 13 -48 0
4 13 -42 0
5 13 -40 0
10 13 -33 0
2 13 -23 0
4 13 28 0
10 13 47 0
4 13 52 0
4 13 65 0
4 13 118 0
8 14 -105 0
9 14 -92 0
9 14 -84 0
10 14 -83 0
8 14 -76 0
3 14 82 0
7 14 86 0
1 14 95 0
4 14 111 0
4 14 117 0
6 14 119 0
7 15 -114 0
2 15 -59 0
4 15 -50 0
4 15 -44 0
2 15 18 0
4 15 33 0
3 15 53 0
6 15 96 0
8 15 105 0
7 15 117 0
10 16 -98 0
2 16 -88 0
1 16 24 0
10 16 46 0
3 16 54 0
4 16 70 0
9 16 81 0
6 16 84 0
7 16 94 0
4 16 101 0
4 17 -119 0
6 17 -41 0
2 17 -28 0
4 17 -25 0
4 17 48 0
4 17 54 0
1 17 66 0
4 17 92 0
7 17 97 0
4 17 101 0
9 18 -84 0
5 18 -54 0
5 18 -40 0
3 18 41 0
8 18 100 0
6 19 -98 0
5 19 -91 0
10 19 -69 0
2 19 -34 0
3 19 59 0
7 19 112 0
2 19 115 0
5 20 -107 0
7 20 -85 0
2 20 -81 0
7 20 -80 0
1 20 -73 0
1 20 -52 0
4 20 23 0
8 20 81 0
4 20 96 0
7 21 -116 0
4 21 -77 0
5 21 -59 0
1 21 -50 0
7 21 -47 0
8 21 -23 0
2 21 26 0
10 21 50 0
6 21 53 0
5 21 101 0
9 22 -115 0
9 22 -106 0
9 22 -63 0
1 22 -51 0
7 22 -39 0
6 22 39 0
6 22 97 0
7 22 120 0
7 23 -116 0
8 23 -112 0
3 23 -71 0
8 23 -51 0
3 23 -44 0
9 23 51 0
9 23 66 0
9 23 67 0
9 23 71 0
10 23 117 0
3 24 31 0
7 24 42 0
4 24 60 0
9 24 100 0
1 24 117 0
8 25 -88 0
9 25 -57 0
7 25 -37 0
6 25 -26 0
10 25 26 0
7 25 34 0
2 25 58 0
5 25 64 0
6 26 -113 0
10 26 -111 0
4 26 -89 0
6 26 -70 0
7 26 -65 0
8 26 39 0
2 26 56 0
3 26 70 0
5 26 76 0
9 26 100 0
6 27 -103 0
4 27 -80 0
2 27 -68 0
5 27 47 0
3 27 84 0
2 27 114 0
4 27 115 0
3 28 -113 0
4 28 -82 0
1 28 -70 0
5 28 -55 0
3 28 -42 0
2 28 63 0
3 28 68 0
2 28 81 0
7 29 -67 0
8 29 45 0
2 29 70 0
4 29 105 0
9 30 -113 0
6 30 -74 0
9 30 -37 0
9 30 32 0
9 30 34 0
5 30 42 0
5 31 -113 0
7 31 -72 0
6 31 -71 0
8 31 34 0
2 31 35 0
5 31 56 0
3 31 71 0
5 31 73 0
7 31 77 0
7 31 79 0
7 31 80 0
7 31 92 0
1 31 114 0
8 32 -112 0
1 32 -100 0
2 32 -93 0
4 32 -83 0
3 32 -82 0
3 32 -35 0
5 32 70 0
4 32 72 0
9 32 74 0
3 33 -92 0
5 33 -85 0
3 33 -84 0
2 33 -43 0
9 33 36 0
2 33 46 0
10 34 -66 0
8 34 -46 0
6 34 35 0
5 34 67 0
5 34 85 0
2 34 116 0
3 34 120 0
7 35 -103 0
6 35 -63 0
5 35 96 0
1 35 111 0
3 36 -109 0
3 36 -84 0
7 36 -62 0
9 36 -58 0
3 36 -57 0
6 36 -52 0
9 36 66 0
4 36 80 0
8 36 82 0
2 36 87 0
6 36 98 0
4 37 -83 0
5 37 -81 0
5 37 -73 0
6 37 -62 0
9 37 -48 0
7 37 52 0
7 37 83 0
8 37 85 0
8 38 -119 0
7 38 -118 0
6 38 -112 0
4 38 -93 0
2 38 -86 0
1 38 -74 0
5 38 -71 0
4 38 -68 0
7 38 57 0
1 38 68 0
8 38 88 0
7 38 93 0
3 38 101 0
10 38 110 0
5 38 119 0
2 39 -95 0
3 39 -87 0
9 39 -41 0
2 39 68 0
6 39 70 0
8 39 73 0
3 39 90 0
1 40 -89 0
2 40 -58 0
6 40 -52 0
5 40 -50 0
7 40 -48 0
5 40 -47 0
2 40 67 0
4 41 -52 0
3 41 -47 0
9 41 65 0
10 41 67 0
8 41 90 0
3 41 92 0
1 41 100 0
8 41 111 0
7 42 -82 0
4 42 -76 0
5 43 48 0
7 43 77 0
2 43 95 0
2 43 96 0
10 43 100 0
2 44 -109 0
5 44 -92 0
2 44 -72 0
4 44 64 0
5 44 85 0
2 44 106 0
9 44 117 0
3 45 -120 0
4 45 -97 0
9 45 55 0
3 45 78 0
9 45 98 0
4 45 110 0
9 45 112 0
4 46 -113 0
5 46 -96 0
3 46 -74 0
6 46 59 0
4 46 109 0
2 46 112 0
4 47 -48 0
6 47 59 0
3 47 78 0
2 47 89 0
3 47 94 0
6 48 -119 0
5 48 -97 0
9 48 -93 0
7 48 -74 0
6 48 -70 0
9 48 -49 0
8 48 63 0
1 48 64 0
10 48 65 0
2 48 75 0
5 48 99 0
2 48 103 0
10 49 -87 0
6 49 -72 0
5 49 -55 0
9 49 -54 0
9 49 82 0
4 50 89 0
3 50 94 0
7 51 -100 0
7 51 -71 0
7 51 53 0
9 51 87 0
3 52 -99 0
1 52 -96 0
1 52 -65 0
6 52 82 0
6 52 90 0
3 52 116 0
6 53 -105 0
8 53 -71 0
7 53 -64 0
2 53 -55 0
7 53 80 0
4 54 -102 0
6 54 66 0
6 54 72 0
2 54 97 0
7 54 107 0
5 54 113 0
3 55 -110 0
2 55 -104 0
6 55 -101 0
2 55 -96 0
7 55 -95 0
1 55 -84 0
1 55 61 0
6 55 66 0
4 56 -114 0
3 56 -93 0
3 56 -81 0
2 56 -68 0
9 57 -110 0
2 57 -87 0
4 57 74 0
9 57 105 0
2 58 -87 0
9 58 -84 0
5 58 -64 0
4 58 106 0
5 58 120 0
3 59 -116 0
1 59 -95 0
6 59 -61 0
9 59 66 0
5 59 89 0
2 59 108 0
4 59 114 0
6 60 -109 0
8 60 -91 0
8 60 -68 0
8 61 -104 0
8 61 94 0
5 61 101 0
9 62 -110 0
5 62 65 0
5 62 86 0
9 62 91 0
10 63 -108 0
8 63 -75 0
2 63 -72 0
3 63 79 0
9 63 89 0
1 63 120 0
4 64 -108 0
3 64 -68 0
10 64 66 0
5 64 88 0
1 64 115 0
5 64 116 0
8 65 -97 0
5 65 -80 0
7 65 76 0
9 65 98 0
10 65 114 0
5 66 -75 0
3 66 96 0
2 66 109 0
8 67 -107 0
8 67 -96 0
9 67 -82 0
7 67 -71 0
6 67 95 0
7 67 111 0
1 68 -87 0
5 68 -72 0
2 68 107 0
5 69 -89 0
4 69 75 0
2 69 81 0
4 69 91 0
5 69 114 0
4 70 -102 0
3 70 -96 0
5 70 79 0
7 70 86 0
4 70 96 0
5 70 115 0
3 71 -102 0
5 71 -84 0
9 71 92 0
10 72 102 0
9 73 -114 0
6 73 76 0
9 73 100 0
9 74 -116 0
10 74 -97 0
2 74 -84 0
1 74 82 0
8 74 97 0
9 75 76 0
9 75 95 0
5 76 -118 0
5 76 -86 0
5 76 90 0
5 78 91 0
8 79 -100 0
6 79 96 0
9 79 110 0
2 80 -115 0
7 80 -101 0
3 80 -83 0
6 80 115 0
1 80 119 0
5 81 -108 0
2 81 -107 0
7 81 -106 0
8 81 -100 0
6 81 -92 0
9 81 98 0
3 82 -106 0
5 82 -103 0
9 83 -115 0
2 83 -110 0
10 83 87 0
8 83 107 0
1 83 112 0
10 84 105 0
9 85 -115 0
1 85 -105 0
8 85 90 0
8 85 104 0
9 85 111 0
2 86 89 0
3 86 110 0
4 87 -114 0
7 87 90 0
1 88 -111 0
10 88 -96 0
6 88 103 0
2 90 -120 0
7 90 97 0
8 90 98 0
7 91 -110 0
7 91 -97 0
2 91 -93 0
8 92 -95 0
5 93 -100 0
9 93 106 0
4 93 119 0
4 94 -119 0
2 94 -107 0
8 94 105 0
3 94 111 0
4 94 120 0
8 96 97 0
9 96 111 0
4 97 -119 0
7 98 -110 0
8 98 -105 0
5 98 108 0
5 99 115 0
6 100 111 0
4 101 -106 0
6 101 118 0
7 102 116 0
7 102 120 0
3 103 -107 0
7 104 -116 0
7 107 -108 0
8 108 -113 0
9 110 -112 0
4 112 -118 0
6 114 120 0
6 116 -120 0
1 117 119 0
